04/23/2026 09:27:26 PM INFO lbbd_cp_v0_solver - setup_solver_logging: ================================================================================
04/23/2026 09:27:26 PM INFO lbbd_cp_v0_solver - setup_solver_logging: Logging started. Log file: D:\Project_Code\Paper\DP_LBBD_1\DP_lbbd\Algorithm\Results\lbbd_cp_v0\small\exp_3f_15j_seed2\log\exp_3f_15j_seed2_running.log
04/23/2026 09:27:26 PM INFO lbbd_cp_v0_solver - print: Feasible pairs: 30/45
04/23/2026 09:27:26 PM INFO lbbd_cp_v0_solver - print: [Master Modeling] Earliest completion lower bounds constraints: 2
04/23/2026 09:27:26 PM INFO lbbd_cp_v0_solver - print: [Master Modeling] Makespan-based delay bounds constraints: 10
04/23/2026 09:27:26 PM INFO lbbd_cp_v0_solver - print: 
04/23/2026 09:27:26 PM INFO lbbd_cp_v0_solver - print: [Model Statistics]
04/23/2026 09:27:26 PM INFO lbbd_cp_v0_solver - print:   Variables: 54
04/23/2026 09:27:26 PM INFO lbbd_cp_v0_solver - print:   Constraints: 27
04/23/2026 09:27:26 PM INFO lbbd_cp_v0_solver - print: 
04/23/2026 09:27:26 PM INFO lbbd_cp_v0_solver - print: [Preprocess Statistics]
04/23/2026 09:27:26 PM INFO lbbd_cp_v0_solver - print:   Infeasible eliminated: 0
04/23/2026 09:27:26 PM INFO lbbd_cp_v0_solver - print:   Unprofitable orders: 0
04/23/2026 09:27:26 PM INFO lbbd_cp_v0_solver - print:   Unprofitable assignments: 0
04/23/2026 09:27:26 PM INFO lbbd_cp_v0_solver - print:   Pairwise conflicts: 0
04/23/2026 09:27:26 PM INFO lbbd_cp_v0_solver - print:   Cluster conflicts: 0
04/23/2026 09:27:26 PM INFO lbbd_cp_v0_solver - print: 
04/23/2026 09:27:26 PM INFO lbbd_cp_v0_solver - print: [Master Enhancement Statistics]
04/23/2026 09:27:26 PM INFO lbbd_cp_v0_solver - print:   Capacity feasibility enhancement constrains: 0
04/23/2026 09:27:26 PM INFO lbbd_cp_v0_solver - print:   Lower bound delay cost enhancement constrains: 0
04/23/2026 09:27:26 PM INFO lbbd_cp_v0_solver - _callback: [Gurobi] Gurobi Optimizer version 10.0.1 build v10.0.1rc0 (win64)
04/23/2026 09:27:26 PM INFO lbbd_cp_v0_solver - _callback: [Gurobi] CPU model: Intel(R) Core(TM) Ultra 7 265KF, instruction set [SSE2|AVX|AVX2]
04/23/2026 09:27:26 PM INFO lbbd_cp_v0_solver - _callback: [Gurobi] Thread count: 20 physical cores, 20 logical processors, using up to 20 threads
04/23/2026 09:27:26 PM INFO lbbd_cp_v0_solver - _callback: [Gurobi] Optimize a model with 27 rows, 54 columns and 160 nonzeros
04/23/2026 09:27:26 PM INFO lbbd_cp_v0_solver - _callback: [Gurobi] Model fingerprint: 0x9e825807
04/23/2026 09:27:26 PM INFO lbbd_cp_v0_solver - _callback: [Gurobi] Variable types: 9 continuous, 45 integer (45 binary)
04/23/2026 09:27:26 PM INFO lbbd_cp_v0_solver - _callback: [Gurobi] Coefficient statistics:
04/23/2026 09:27:26 PM INFO lbbd_cp_v0_solver - _callback: [Gurobi] Matrix range     [1e+00, 1e+03]
04/23/2026 09:27:26 PM INFO lbbd_cp_v0_solver - _callback: [Gurobi] Objective range  [1e+00, 2e+03]
04/23/2026 09:27:26 PM INFO lbbd_cp_v0_solver - _callback: [Gurobi] Bounds range     [1e+00, 9e+03]
04/23/2026 09:27:26 PM INFO lbbd_cp_v0_solver - _callback: [Gurobi] RHS range        [2e+03, 3e+03]
04/23/2026 09:27:26 PM INFO lbbd_cp_v0_solver - print: ***[Validated]*** obj=0.00, delay=0.00, bound=10000000000000000159028911097599180468360808563945281389781327557747838772170381060813469985856815104.00, gap=999999999999999977049513265245336628446842719924150006129995974731993452180789911303261294481511546880.00%, t=0.0s
04/23/2026 09:27:26 PM INFO lbbd_cp_v0_solver - _callback: [Gurobi] Found heuristic solution: objective -0.0000000
04/23/2026 09:27:26 PM INFO lbbd_cp_v0_solver - _callback: [Gurobi] Presolve removed 9 rows and 5 columns
04/23/2026 09:27:26 PM INFO lbbd_cp_v0_solver - _callback: [Gurobi] Presolve time: 0.00s
04/23/2026 09:27:26 PM INFO lbbd_cp_v0_solver - _callback: [Gurobi] Presolved: 18 rows, 49 columns, 106 nonzeros
04/23/2026 09:27:26 PM INFO lbbd_cp_v0_solver - _callback: [Gurobi] Variable types: 9 continuous, 40 integer (40 binary)
04/23/2026 09:27:26 PM INFO lbbd_cp_v0_solver - print: >>>Parallel subproblem time: 0.019s for 3 factories
04/23/2026 09:27:26 PM INFO lbbd_cp_v0_solver - print:  Added feasibility cut: factory=1, conflict orders=[1, 3, 6, 8, 14]
04/23/2026 09:27:26 PM INFO lbbd_cp_v0_solver - print:  Added optimal optimality cut: factory=2, orders=[9, 10, 13], cost=918.83, theta_est=0.00
04/23/2026 09:27:26 PM INFO lbbd_cp_v0_solver - print:  Added optimal optimality cut: factory=3, orders=[2, 4, 5, 11], cost=735.63, theta_est=0.00
04/23/2026 09:27:26 PM INFO lbbd_cp_v0_solver - _callback: [Gurobi] Root relaxation: objective 7.151082e+03, 23 iterations, 0.00 seconds (0.00 work units)
04/23/2026 09:27:26 PM INFO lbbd_cp_v0_solver - _callback: [Gurobi] Nodes    |    Current Node    |     Objective Bounds      |     Work
04/23/2026 09:27:26 PM INFO lbbd_cp_v0_solver - _callback: [Gurobi] Expl Unexpl |  Obj  Depth IntInf | Incumbent    BestBd   Gap | It/Node Time
04/23/2026 09:27:26 PM INFO lbbd_cp_v0_solver - _callback: [Gurobi] 0     0 7151.08153    0    6   -0.00000 7151.08153      -     -    0s
04/23/2026 09:27:26 PM INFO lbbd_cp_v0_solver - print: >>>Parallel subproblem time: 0.015s for 3 factories
04/23/2026 09:27:26 PM INFO lbbd_cp_v0_solver - print:  Added optimal optimality cut: factory=1, orders=[1, 3, 8, 12], cost=115.79, theta_est=0.00
04/23/2026 09:27:26 PM INFO lbbd_cp_v0_solver - print:  Added feasibility cut: factory=3, conflict orders=[2, 7, 11, 13]
04/23/2026 09:27:26 PM INFO lbbd_cp_v0_solver - print: >>>Parallel subproblem time: 0.015s for 3 factories
04/23/2026 09:27:26 PM INFO lbbd_cp_v0_solver - print:  Added optimal optimality cut: factory=1, orders=[1, 3, 6, 8, 12], cost=1146.52, theta_est=115.79
04/23/2026 09:27:26 PM INFO lbbd_cp_v0_solver - print:  Added optimal optimality cut: factory=2, orders=[9, 10, 14, 15], cost=722.86, theta_est=32.98
04/23/2026 09:27:26 PM INFO lbbd_cp_v0_solver - print:  Added feasibility cut: factory=3, conflict orders=[2, 5, 7, 13]
04/23/2026 09:27:26 PM INFO lbbd_cp_v0_solver - print: >>>Parallel subproblem time: 0.016s for 3 factories
04/23/2026 09:27:26 PM INFO lbbd_cp_v0_solver - print:  Added optimal optimality cut: factory=3, orders=[2, 7, 13], cost=38.74, theta_est=0.00
04/23/2026 09:27:26 PM INFO lbbd_cp_v0_solver - print: ***[Validated]*** obj=4666.98, delay=1908.11, bound=7151.08, gap=53.23%, t=0.1s
04/23/2026 09:27:26 PM INFO lbbd_cp_v0_solver - print: >>>Parallel subproblem time: 0.014s for 3 factories
04/23/2026 09:27:26 PM INFO lbbd_cp_v0_solver - _callback: [Gurobi] H    0     0                    4666.9782747 7151.08153  53.2%     -    0s
04/23/2026 09:27:26 PM INFO lbbd_cp_v0_solver - print: >>>Parallel subproblem time: 0.015s for 3 factories
04/23/2026 09:27:26 PM INFO lbbd_cp_v0_solver - print:  Added optimal optimality cut: factory=1, orders=[1, 3, 6, 8], cost=534.26, theta_est=0.00
04/23/2026 09:27:26 PM INFO lbbd_cp_v0_solver - print: ***[Validated]*** obj=4765.80, delay=1295.85, bound=7151.08, gap=50.05%, t=0.1s
04/23/2026 09:27:26 PM INFO lbbd_cp_v0_solver - print: >>>Parallel subproblem time: 0.016s for 3 factories
04/23/2026 09:27:26 PM INFO lbbd_cp_v0_solver - _callback: [Gurobi] H    0     0                    4765.7964278 7151.08153  50.1%     -    0s
04/23/2026 09:27:26 PM INFO lbbd_cp_v0_solver - _callback: [Gurobi] 0     0 7016.44837    0    7 4765.79643 7016.44837  47.2%     -    0s
04/23/2026 09:27:26 PM INFO lbbd_cp_v0_solver - print: >>>Parallel subproblem time: 0.014s for 3 factories
04/23/2026 09:27:26 PM INFO lbbd_cp_v0_solver - print:  Added optimal optimality cut: factory=1, orders=[1, 3, 6, 10, 12], cost=993.56, theta_est=91.02
04/23/2026 09:27:26 PM INFO lbbd_cp_v0_solver - print:  Added optimal optimality cut: factory=2, orders=[9, 13, 15], cost=66.74, theta_est=17.87
04/23/2026 09:27:26 PM INFO lbbd_cp_v0_solver - print:  Added feasibility cut: factory=3, conflict orders=[2, 7, 11, 14]
04/23/2026 09:27:26 PM INFO lbbd_cp_v0_solver - _callback: [Gurobi] 0     0 6985.61989    0   14 4765.79643 6985.61989  46.6%     -    0s
04/23/2026 09:27:26 PM INFO lbbd_cp_v0_solver - _callback: [Gurobi] 0     0 6982.67150    0   14 4765.79643 6982.67150  46.5%     -    0s
04/23/2026 09:27:26 PM INFO lbbd_cp_v0_solver - _callback: [Gurobi] 0     0 6915.18483    0   12 4765.79643 6915.18483  45.1%     -    0s
04/23/2026 09:27:26 PM INFO lbbd_cp_v0_solver - print: >>>Parallel subproblem time: 0.014s for 3 factories
04/23/2026 09:27:26 PM INFO lbbd_cp_v0_solver - print:  Added optimal optimality cut: factory=1, orders=[1, 3, 8, 10, 12], cost=1164.87, theta_est=186.07
04/23/2026 09:27:26 PM INFO lbbd_cp_v0_solver - print:  Added optimal optimality cut: factory=2, orders=[6, 9, 14, 15], cost=1707.17, theta_est=231.55
04/23/2026 09:27:26 PM INFO lbbd_cp_v0_solver - print:  Added optimal optimality cut: factory=3, orders=[2, 4, 7, 11], cost=381.14, theta_est=53.97
04/23/2026 09:27:26 PM INFO lbbd_cp_v0_solver - print: >>>Parallel subproblem time: 0.013s for 3 factories
04/23/2026 09:27:26 PM INFO lbbd_cp_v0_solver - print:  Added feasibility cut: factory=1, conflict orders=[1, 3, 6, 8, 10]
04/23/2026 09:27:26 PM INFO lbbd_cp_v0_solver - _callback: [Gurobi] 0     0 6837.96039    0   18 4765.79643 6837.96039  43.5%     -    0s
04/23/2026 09:27:26 PM INFO lbbd_cp_v0_solver - _callback: [Gurobi] 0     0 6826.60452    0   18 4765.79643 6826.60452  43.2%     -    0s
04/23/2026 09:27:27 PM INFO lbbd_cp_v0_solver - print: >>>Parallel subproblem time: 0.013s for 3 factories
04/23/2026 09:27:27 PM INFO lbbd_cp_v0_solver - print:  Added feasibility cut: factory=1, conflict orders=[1, 3, 6, 10, 13]
04/23/2026 09:27:27 PM INFO lbbd_cp_v0_solver - print:  Added optimal optimality cut: factory=3, orders=[2, 7, 11, 12], cost=180.20, theta_est=128.21
04/23/2026 09:27:27 PM INFO lbbd_cp_v0_solver - _callback: [Gurobi] 0     0 6824.61907    0   20 4765.79643 6824.61907  43.2%     -    0s
04/23/2026 09:27:27 PM INFO lbbd_cp_v0_solver - _callback: [Gurobi] 0     0 6819.75901    0   21 4765.79643 6819.75901  43.1%     -    0s
04/23/2026 09:27:27 PM INFO lbbd_cp_v0_solver - print: >>>Parallel subproblem time: 0.014s for 3 factories
04/23/2026 09:27:27 PM INFO lbbd_cp_v0_solver - print:  Added optimal optimality cut: factory=1, orders=[3, 6, 10, 12], cost=438.14, theta_est=0.00
04/23/2026 09:27:27 PM INFO lbbd_cp_v0_solver - print:  Added optimal optimality cut: factory=2, orders=[9, 13, 14, 15], cost=729.37, theta_est=66.74
04/23/2026 09:27:27 PM INFO lbbd_cp_v0_solver - print:  Added feasibility cut: factory=3, conflict orders=[2, 5, 7, 11]
04/23/2026 09:27:27 PM INFO lbbd_cp_v0_solver - print: >>>Parallel subproblem time: 0.016s for 3 factories
04/23/2026 09:27:27 PM INFO lbbd_cp_v0_solver - print:  Added optimal optimality cut: factory=1, orders=[1, 6, 8, 10, 12], cost=1007.14, theta_est=118.17
04/23/2026 09:27:27 PM INFO lbbd_cp_v0_solver - print:  Added optimal optimality cut: factory=3, orders=[5, 7, 11], cost=237.23, theta_est=0.00
04/23/2026 09:27:27 PM INFO lbbd_cp_v0_solver - print: >>>Parallel subproblem time: 0.014s for 3 factories
04/23/2026 09:27:27 PM INFO lbbd_cp_v0_solver - print:  Added optimal optimality cut: factory=3, orders=[2, 5, 7], cost=225.46, theta_est=0.00
04/23/2026 09:27:27 PM INFO lbbd_cp_v0_solver - _callback: [Gurobi] 0     0 6789.60841    0   20 4765.79643 6789.60841  42.5%     -    0s
04/23/2026 09:27:27 PM INFO lbbd_cp_v0_solver - _callback: [Gurobi] 0     0 6779.81687    0   19 4765.79643 6779.81687  42.3%     -    0s
04/23/2026 09:27:27 PM INFO lbbd_cp_v0_solver - _callback: [Gurobi] 0     0 6779.59915    0   20 4765.79643 6779.59915  42.3%     -    0s
04/23/2026 09:27:27 PM INFO lbbd_cp_v0_solver - _callback: [Gurobi] 0     0 6771.96072    0   18 4765.79643 6771.96072  42.1%     -    0s
04/23/2026 09:27:27 PM INFO lbbd_cp_v0_solver - print: >>>Parallel subproblem time: 0.013s for 3 factories
04/23/2026 09:27:27 PM INFO lbbd_cp_v0_solver - print:  Added optimal optimality cut: factory=2, orders=[7, 9, 14, 15], cost=1038.83, theta_est=197.96
04/23/2026 09:27:27 PM INFO lbbd_cp_v0_solver - print:  Added feasibility cut: factory=3, conflict orders=[2, 5, 11, 13]
04/23/2026 09:27:27 PM INFO lbbd_cp_v0_solver - _callback: [Gurobi] 0     0 6767.72798    0   18 4765.79643 6767.72798  42.0%     -    0s
04/23/2026 09:27:27 PM INFO lbbd_cp_v0_solver - _callback: [Gurobi] 0     0 6767.21711    0   18 4765.79643 6767.21711  42.0%     -    0s
04/23/2026 09:27:27 PM INFO lbbd_cp_v0_solver - _callback: [Gurobi] 0     0 6766.50518    0   19 4765.79643 6766.50518  42.0%     -    0s
04/23/2026 09:27:27 PM INFO lbbd_cp_v0_solver - _callback: [Gurobi] 0     0 6766.36004    0   19 4765.79643 6766.36004  42.0%     -    0s
04/23/2026 09:27:27 PM INFO lbbd_cp_v0_solver - _callback: [Gurobi] 0     0 6720.68643    0   16 4765.79643 6720.68643  41.0%     -    0s
04/23/2026 09:27:27 PM INFO lbbd_cp_v0_solver - print: >>>Parallel subproblem time: 0.013s for 3 factories
04/23/2026 09:27:27 PM INFO lbbd_cp_v0_solver - print:  Added feasibility cut: factory=1, conflict orders=[1, 3, 8, 10, 13]
04/23/2026 09:27:27 PM INFO lbbd_cp_v0_solver - _callback: [Gurobi] 0     0 6695.09790    0   18 4765.79643 6695.09790  40.5%     -    0s
04/23/2026 09:27:27 PM INFO lbbd_cp_v0_solver - _callback: [Gurobi] 0     0 6692.85897    0   18 4765.79643 6692.85897  40.4%     -    0s
04/23/2026 09:27:27 PM INFO lbbd_cp_v0_solver - _callback: [Gurobi] 0     0 6687.75679    0   17 4765.79643 6687.75679  40.3%     -    0s
04/23/2026 09:27:27 PM INFO lbbd_cp_v0_solver - print: >>>Parallel subproblem time: 0.015s for 3 factories
04/23/2026 09:27:27 PM INFO lbbd_cp_v0_solver - print:  Added optimal optimality cut: factory=1, orders=[1, 6, 10, 12, 13], cost=964.70, theta_est=92.37
04/23/2026 09:27:27 PM INFO lbbd_cp_v0_solver - print: ***[Validated]*** obj=4966.79, delay=964.70, bound=6687.76, gap=34.65%, t=0.3s
04/23/2026 09:27:27 PM INFO lbbd_cp_v0_solver - print: >>>Parallel subproblem time: 0.016s for 3 factories
04/23/2026 09:27:27 PM INFO lbbd_cp_v0_solver - _callback: [Gurobi] H    0     0                    4966.7916549 6687.75679  34.6%     -    0s
04/23/2026 09:27:27 PM INFO lbbd_cp_v0_solver - print: >>>Parallel subproblem time: 0.015s for 3 factories
04/23/2026 09:27:27 PM INFO lbbd_cp_v0_solver - print:  Added optimal optimality cut: factory=1, orders=[3, 6, 10, 12, 13], cost=1788.40, theta_est=438.14
04/23/2026 09:27:27 PM INFO lbbd_cp_v0_solver - print: >>>Parallel subproblem time: 0.015s for 3 factories
04/23/2026 09:27:27 PM INFO lbbd_cp_v0_solver - print:  Added optimal optimality cut: factory=3, orders=[2, 4, 5, 7], cost=619.70, theta_est=225.46
04/23/2026 09:27:27 PM INFO lbbd_cp_v0_solver - print: >>>Parallel subproblem time: 0.016s for 3 factories
04/23/2026 09:27:27 PM INFO lbbd_cp_v0_solver - print: ***[Validated]*** obj=4976.04, delay=1345.84, bound=6687.76, gap=34.40%, t=0.3s
04/23/2026 09:27:27 PM INFO lbbd_cp_v0_solver - _callback: [Gurobi] H    0     0                    4976.0420359 6687.75679  34.4%     -    0s
04/23/2026 09:27:27 PM INFO lbbd_cp_v0_solver - _callback: [Gurobi] 0     0 6684.87143    0   17 4976.04204 6684.87143  34.3%     -    0s
04/23/2026 09:27:27 PM INFO lbbd_cp_v0_solver - _callback: [Gurobi] 0     0 6684.37720    0   17 4976.04204 6684.37720  34.3%     -    0s
04/23/2026 09:27:27 PM INFO lbbd_cp_v0_solver - _callback: [Gurobi] 0     0 6679.94030    0   18 4976.04204 6679.94030  34.2%     -    0s
04/23/2026 09:27:27 PM INFO lbbd_cp_v0_solver - print: >>>Parallel subproblem time: 0.014s for 3 factories
04/23/2026 09:27:27 PM INFO lbbd_cp_v0_solver - print: ***[Validated]*** obj=5327.98, delay=1374.70, bound=6679.94, gap=25.37%, t=0.4s
04/23/2026 09:27:27 PM INFO lbbd_cp_v0_solver - _callback: [Gurobi] H    0     0                    5327.9751003 6679.94030  25.4%     -    0s
04/23/2026 09:27:27 PM INFO lbbd_cp_v0_solver - _callback: [Gurobi] 0     0 6678.16878    0   20 5327.97510 6678.16878  25.3%     -    0s
04/23/2026 09:27:27 PM INFO lbbd_cp_v0_solver - _callback: [Gurobi] 0     0 6677.91571    0   20 5327.97510 6677.91571  25.3%     -    0s
04/23/2026 09:27:27 PM INFO lbbd_cp_v0_solver - _callback: [Gurobi] 0     0 6666.84590    0   17 5327.97510 6666.84590  25.1%     -    0s
04/23/2026 09:27:27 PM INFO lbbd_cp_v0_solver - _callback: [Gurobi] 0     0 6662.13973    0   17 5327.97510 6662.13973  25.0%     -    0s
04/23/2026 09:27:27 PM INFO lbbd_cp_v0_solver - print: >>>Parallel subproblem time: 0.012s for 3 factories
04/23/2026 09:27:27 PM INFO lbbd_cp_v0_solver - print:  Added optimal optimality cut: factory=1, orders=[6, 10, 12, 13], cost=340.35, theta_est=0.00
04/23/2026 09:27:27 PM INFO lbbd_cp_v0_solver - _callback: [Gurobi] 0     0 6657.21694    0   17 5327.97510 6657.21694  24.9%     -    0s
04/23/2026 09:27:27 PM INFO lbbd_cp_v0_solver - _callback: [Gurobi] 0     0 6655.17408    0   18 5327.97510 6655.17408  24.9%     -    0s
04/23/2026 09:27:27 PM INFO lbbd_cp_v0_solver - _callback: [Gurobi] 0     0 6655.11841    0   18 5327.97510 6655.11841  24.9%     -    0s
04/23/2026 09:27:27 PM INFO lbbd_cp_v0_solver - _callback: [Gurobi] 0     0 6638.11375    0   19 5327.97510 6638.11375  24.6%     -    0s
04/23/2026 09:27:27 PM INFO lbbd_cp_v0_solver - _callback: [Gurobi] 0     0 6637.67016    0   19 5327.97510 6637.67016  24.6%     -    0s
04/23/2026 09:27:27 PM INFO lbbd_cp_v0_solver - _callback: [Gurobi] 0     0 6636.81804    0   19 5327.97510 6636.81804  24.6%     -    0s
04/23/2026 09:27:27 PM INFO lbbd_cp_v0_solver - _callback: [Gurobi] 0     0 6636.81572    0   19 5327.97510 6636.81572  24.6%     -    0s
04/23/2026 09:27:27 PM INFO lbbd_cp_v0_solver - _callback: [Gurobi] 0     0 6634.84702    0   19 5327.97510 6634.84702  24.5%     -    0s
04/23/2026 09:27:27 PM INFO lbbd_cp_v0_solver - _callback: [Gurobi] 0     0 6634.84702    0   19 5327.97510 6634.84702  24.5%     -    0s
04/23/2026 09:27:27 PM INFO lbbd_cp_v0_solver - print: >>>Parallel subproblem time: 0.011s for 3 factories
04/23/2026 09:27:27 PM INFO lbbd_cp_v0_solver - print:  Added optimal optimality cut: factory=1, orders=[1, 3, 10, 12, 13], cost=1089.23, theta_est=160.27
04/23/2026 09:27:27 PM INFO lbbd_cp_v0_solver - print:  Added optimal optimality cut: factory=2, orders=[6, 9, 15], cost=696.77, theta_est=231.55
04/23/2026 09:27:27 PM INFO lbbd_cp_v0_solver - print:  Added feasibility cut: factory=3, conflict orders=[2, 4, 7, 14]
04/23/2026 09:27:27 PM INFO lbbd_cp_v0_solver - print: >>>Parallel subproblem time: 0.015s for 3 factories
04/23/2026 09:27:27 PM INFO lbbd_cp_v0_solver - print:  Added optimal optimality cut: factory=1, orders=[1, 3, 6, 10], cost=371.04, theta_est=40.82
04/23/2026 09:27:27 PM INFO lbbd_cp_v0_solver - print:  Added optimal optimality cut: factory=3, orders=[2, 4, 7, 12], cost=223.04, theta_est=82.13
04/23/2026 09:27:27 PM INFO lbbd_cp_v0_solver - print: ***[Validated]*** obj=5533.93, delay=594.08, bound=6634.85, gap=19.89%, t=0.4s
04/23/2026 09:27:27 PM INFO lbbd_cp_v0_solver - print: >>>Parallel subproblem time: 0.015s for 3 factories
04/23/2026 09:27:27 PM INFO lbbd_cp_v0_solver - print:  Added optimal optimality cut: factory=1, orders=[3, 6, 8, 10, 12], cost=1890.01, theta_est=438.14
04/23/2026 09:27:27 PM INFO lbbd_cp_v0_solver - print: >>>Parallel subproblem time: 0.011s for 3 factories
04/23/2026 09:27:27 PM INFO lbbd_cp_v0_solver - _callback: [Gurobi] H    0     2                    5386.9354583 6634.84702  23.2%     -    0s
04/23/2026 09:27:27 PM INFO lbbd_cp_v0_solver - _callback: [Gurobi] 0     2 6616.30731    0   18 5386.93546 6616.30731  22.8%     -    0s
04/23/2026 09:27:27 PM INFO lbbd_cp_v0_solver - print: >>>Parallel subproblem time: 0.013s for 3 factories
04/23/2026 09:27:27 PM INFO lbbd_cp_v0_solver - print:  Added optimal optimality cut: factory=1, orders=[1, 3, 6, 12, 13], cost=970.07, theta_est=76.12
04/23/2026 09:27:27 PM INFO lbbd_cp_v0_solver - print:  Added feasibility cut: factory=2, conflict orders=[7, 9, 10, 15]
04/23/2026 09:27:27 PM INFO lbbd_cp_v0_solver - print:  Added feasibility cut: factory=3, conflict orders=[2, 5, 11, 14]
04/23/2026 09:27:27 PM INFO lbbd_cp_v0_solver - print: >>>Parallel subproblem time: 0.015s for 3 factories
04/23/2026 09:27:27 PM INFO lbbd_cp_v0_solver - print:  Added feasibility cut: factory=1, conflict orders=[3, 6, 8, 10, 13]
04/23/2026 09:27:27 PM INFO lbbd_cp_v0_solver - print:  Added optimal optimality cut: factory=3, orders=[2, 4, 7, 11, 12], cost=1135.22, theta_est=381.14
04/23/2026 09:27:27 PM INFO lbbd_cp_v0_solver - print: >>>Parallel subproblem time: 0.014s for 3 factories
04/23/2026 09:27:27 PM INFO lbbd_cp_v0_solver - print:  Added feasibility cut: factory=1, conflict orders=[1, 3, 8, 9, 10]
04/23/2026 09:27:27 PM INFO lbbd_cp_v0_solver - print:  Added optimal optimality cut: factory=2, orders=[6, 13, 15], cost=1255.09, theta_est=231.55
04/23/2026 09:27:27 PM INFO lbbd_cp_v0_solver - print:  Added feasibility cut: factory=3, conflict orders=[2, 5, 7, 12, 14]
04/23/2026 09:27:27 PM INFO lbbd_cp_v0_solver - print: >>>Parallel subproblem time: 0.016s for 3 factories
04/23/2026 09:27:27 PM INFO lbbd_cp_v0_solver - print:  Added feasibility cut: factory=3, conflict orders=[2, 5, 7, 14]
04/23/2026 09:27:27 PM INFO lbbd_cp_v0_solver - print: >>>Parallel subproblem time: 0.016s for 3 factories
04/23/2026 09:27:27 PM INFO lbbd_cp_v0_solver - print:  Added optimal optimality cut: factory=2, orders=[6, 10, 14, 15], cost=1628.06, theta_est=231.55
04/23/2026 09:27:27 PM INFO lbbd_cp_v0_solver - print:  Added feasibility cut: factory=3, conflict orders=[2, 4, 7, 9, 13]
04/23/2026 09:27:27 PM INFO lbbd_cp_v0_solver - print: >>>Parallel subproblem time: 0.015s for 3 factories
04/23/2026 09:27:27 PM INFO lbbd_cp_v0_solver - print:  Added feasibility cut: factory=1, conflict orders=[1, 6, 8, 10, 13]
04/23/2026 09:27:27 PM INFO lbbd_cp_v0_solver - print: >>>Parallel subproblem time: 0.015s for 3 factories
04/23/2026 09:27:27 PM INFO lbbd_cp_v0_solver - print:  Added feasibility cut: factory=1, conflict orders=[1, 3, 8, 10, 14]
04/23/2026 09:27:27 PM INFO lbbd_cp_v0_solver - print:  Added feasibility cut: factory=2, conflict orders=[6, 7, 9, 15]
04/23/2026 09:27:27 PM INFO lbbd_cp_v0_solver - print:  Added optimal optimality cut: factory=3, orders=[2, 4, 5, 13], cost=1130.39, theta_est=0.00
04/23/2026 09:27:27 PM INFO lbbd_cp_v0_solver - print: >>>Parallel subproblem time: 0.016s for 3 factories
04/23/2026 09:27:27 PM INFO lbbd_cp_v0_solver - print:  Added optimal optimality cut: factory=1, orders=[1, 3, 10, 12], cost=124.19, theta_est=0.00
04/23/2026 09:27:27 PM INFO lbbd_cp_v0_solver - print:  Added optimal optimality cut: factory=3, orders=[2, 4, 7, 13], cost=910.78, theta_est=38.74
04/23/2026 09:27:27 PM INFO lbbd_cp_v0_solver - print: >>>Parallel subproblem time: 0.016s for 3 factories
04/23/2026 09:27:27 PM INFO lbbd_cp_v0_solver - print:  Added optimal optimality cut: factory=1, orders=[1, 3, 8, 12, 14], cost=1142.83, theta_est=231.00
04/23/2026 09:27:27 PM INFO lbbd_cp_v0_solver - print:  Added optimal optimality cut: factory=2, orders=[6, 10, 15], cost=1075.19, theta_est=231.55
04/23/2026 09:27:27 PM INFO lbbd_cp_v0_solver - print:  Added optimal optimality cut: factory=3, orders=[2, 4, 7, 9, 11], cost=1553.63, theta_est=381.14
04/23/2026 09:27:27 PM INFO lbbd_cp_v0_solver - print: >>>Parallel subproblem time: 0.014s for 3 factories
04/23/2026 09:27:27 PM INFO lbbd_cp_v0_solver - print:  Added optimal optimality cut: factory=1, orders=[1, 3, 8, 10], cost=506.40, theta_est=0.00
04/23/2026 09:27:27 PM INFO lbbd_cp_v0_solver - print:  Added optimal optimality cut: factory=2, orders=[7, 9, 12, 15], cost=3202.90, theta_est=289.27
04/23/2026 09:27:27 PM INFO lbbd_cp_v0_solver - print:  Added feasibility cut: factory=3, conflict orders=[2, 11, 13, 14]
04/23/2026 09:27:27 PM INFO lbbd_cp_v0_solver - print: >>>Parallel subproblem time: 0.016s for 3 factories
04/23/2026 09:27:27 PM INFO lbbd_cp_v0_solver - print: ***[Validated]*** obj=5667.53, delay=505.32, bound=6472.73, gap=14.21%, t=0.6s
04/23/2026 09:27:27 PM INFO lbbd_cp_v0_solver - _callback: [Gurobi] H   35    50                    5667.5277230 6472.73083  14.2%   8.8    0s
04/23/2026 09:27:27 PM INFO lbbd_cp_v0_solver - print: >>>Parallel subproblem time: 0.015s for 3 factories
04/23/2026 09:27:27 PM INFO lbbd_cp_v0_solver - print:  Added feasibility cut: factory=1, conflict orders=[1, 3, 6, 10, 14]
04/23/2026 09:27:27 PM INFO lbbd_cp_v0_solver - print:  Added optimal optimality cut: factory=2, orders=[7, 9, 15], cost=900.79, theta_est=197.96
04/23/2026 09:27:27 PM INFO lbbd_cp_v0_solver - print:  Added optimal optimality cut: factory=3, orders=[2, 4, 5, 12], cost=342.83, theta_est=0.00
04/23/2026 09:27:27 PM INFO lbbd_cp_v0_solver - print: >>>Parallel subproblem time: 0.014s for 3 factories
04/23/2026 09:27:27 PM INFO lbbd_cp_v0_solver - print:  Added optimal optimality cut: factory=1, orders=[1, 3, 8, 13], cost=765.63, theta_est=0.00
04/23/2026 09:27:27 PM INFO lbbd_cp_v0_solver - print:  Added optimal optimality cut: factory=2, orders=[9, 10, 15], cost=198.65, theta_est=0.00
04/23/2026 09:27:27 PM INFO lbbd_cp_v0_solver - print:  Added feasibility cut: factory=3, conflict orders=[2, 7, 12, 14]
04/23/2026 09:27:27 PM INFO lbbd_cp_v0_solver - print: >>>Parallel subproblem time: 0.016s for 3 factories
04/23/2026 09:27:27 PM INFO lbbd_cp_v0_solver - print:  Added feasibility cut: factory=3, conflict orders=[4, 5, 7, 11, 13]
04/23/2026 09:27:27 PM INFO lbbd_cp_v0_solver - print: >>>Parallel subproblem time: 0.016s for 3 factories
04/23/2026 09:27:27 PM INFO lbbd_cp_v0_solver - print:  Added optimal optimality cut: factory=2, orders=[6, 7, 14, 15], cost=1916.59, theta_est=429.51
04/23/2026 09:27:27 PM INFO lbbd_cp_v0_solver - print:  Added feasibility cut: factory=3, conflict orders=[2, 4, 9, 11, 13]
04/23/2026 09:27:27 PM INFO lbbd_cp_v0_solver - print: >>>Parallel subproblem time: 0.015s for 3 factories
04/23/2026 09:27:27 PM INFO lbbd_cp_v0_solver - print:  Added feasibility cut: factory=1, conflict orders=[3, 6, 8, 10, 14]
04/23/2026 09:27:27 PM INFO lbbd_cp_v0_solver - print:  Added optimal optimality cut: factory=3, orders=[2, 4, 5, 7, 12], cost=1450.81, theta_est=619.70
04/23/2026 09:27:27 PM INFO lbbd_cp_v0_solver - print: >>>Parallel subproblem time: 0.015s for 3 factories
04/23/2026 09:27:27 PM INFO lbbd_cp_v0_solver - print:  Added optimal optimality cut: factory=1, orders=[3, 6, 8, 10], cost=963.67, theta_est=0.00
04/23/2026 09:27:27 PM INFO lbbd_cp_v0_solver - print:  Added optimal optimality cut: factory=2, orders=[9, 12, 15], cost=565.70, theta_est=91.31
04/23/2026 09:27:27 PM INFO lbbd_cp_v0_solver - print:  Added feasibility cut: factory=3, conflict orders=[2, 7, 13, 14]
04/23/2026 09:27:27 PM INFO lbbd_cp_v0_solver - print: >>>Parallel subproblem time: 0.012s for 3 factories
04/23/2026 09:27:27 PM INFO lbbd_cp_v0_solver - print:  Added feasibility cut: factory=1, conflict orders=[1, 3, 6, 9, 12]
04/23/2026 09:27:27 PM INFO lbbd_cp_v0_solver - print:  Added optimal optimality cut: factory=2, orders=[7, 10, 14, 15], cost=1110.67, theta_est=197.96
04/23/2026 09:27:27 PM INFO lbbd_cp_v0_solver - print:  Added optimal optimality cut: factory=3, orders=[2, 4, 11, 13], cost=989.17, theta_est=0.00
04/23/2026 09:27:27 PM INFO lbbd_cp_v0_solver - print: >>>Parallel subproblem time: 0.016s for 3 factories
04/23/2026 09:27:27 PM INFO lbbd_cp_v0_solver - print:  Added feasibility cut: factory=1, conflict orders=[1, 3, 6, 9]
04/23/2026 09:27:27 PM INFO lbbd_cp_v0_solver - print:  Added optimal optimality cut: factory=2, orders=[7, 10, 12, 15], cost=3227.32, theta_est=289.27
04/23/2026 09:27:27 PM INFO lbbd_cp_v0_solver - print:  Added feasibility cut: factory=3, conflict orders=[2, 5, 13, 14]
04/23/2026 09:27:27 PM INFO lbbd_cp_v0_solver - print: >>>Parallel subproblem time: 0.010s for 3 factories
04/23/2026 09:27:27 PM INFO lbbd_cp_v0_solver - print:  Added optimal optimality cut: factory=1, orders=[1, 3, 6, 12, 14], cost=878.09, theta_est=135.95
04/23/2026 09:27:27 PM INFO lbbd_cp_v0_solver - print:  Added optimal optimality cut: factory=2, orders=[7, 10, 15], cost=973.89, theta_est=197.96
04/23/2026 09:27:27 PM INFO lbbd_cp_v0_solver - print:  Added feasibility cut: factory=3, conflict orders=[2, 9, 11, 13]
04/23/2026 09:27:27 PM INFO lbbd_cp_v0_solver - print: >>>Parallel subproblem time: 0.016s for 3 factories
04/23/2026 09:27:27 PM INFO lbbd_cp_v0_solver - print:  Added optimal optimality cut: factory=1, orders=[1, 3, 10, 12, 14], cost=1132.36, theta_est=220.10
04/23/2026 09:27:27 PM INFO lbbd_cp_v0_solver - print:  Added optimal optimality cut: factory=2, orders=[6, 7, 15], cost=1778.56, theta_est=429.51
04/23/2026 09:27:27 PM INFO lbbd_cp_v0_solver - print:  Added optimal optimality cut: factory=3, orders=[2, 4, 5, 9], cost=683.25, theta_est=0.00
04/23/2026 09:27:27 PM INFO lbbd_cp_v0_solver - print: >>>Parallel subproblem time: 0.012s for 3 factories
04/23/2026 09:27:27 PM INFO lbbd_cp_v0_solver - print:  Added feasibility cut: factory=1, conflict orders=[1, 6, 8, 10, 14]
04/23/2026 09:27:27 PM INFO lbbd_cp_v0_solver - print:  Added optimal optimality cut: factory=3, orders=[4, 5, 7, 11, 12], cost=1487.10, theta_est=273.98
04/23/2026 09:27:27 PM INFO lbbd_cp_v0_solver - print: >>>Parallel subproblem time: 0.016s for 3 factories
04/23/2026 09:27:27 PM INFO lbbd_cp_v0_solver - print:  Added optimal optimality cut: factory=1, orders=[3, 6, 8, 12, 13], cost=1992.47, theta_est=170.52
04/23/2026 09:27:27 PM INFO lbbd_cp_v0_solver - print:  Added optimal optimality cut: factory=3, orders=[2, 4, 9, 11], cost=531.34, theta_est=0.00
04/23/2026 09:27:27 PM INFO lbbd_cp_v0_solver - print: >>>Parallel subproblem time: 0.007s for 3 factories
04/23/2026 09:27:27 PM INFO lbbd_cp_v0_solver - print:  Added feasibility cut: factory=1, conflict orders=[1, 3, 4, 10, 13]
04/23/2026 09:27:27 PM INFO lbbd_cp_v0_solver - print: >>>Parallel subproblem time: 0.015s for 3 factories
04/23/2026 09:27:27 PM INFO lbbd_cp_v0_solver - print:  Added optimal optimality cut: factory=1, orders=[3, 8, 10, 12], cost=596.72, theta_est=0.00
04/23/2026 09:27:27 PM INFO lbbd_cp_v0_solver - print:  Added feasibility cut: factory=3, conflict orders=[2, 4, 11, 14]
04/23/2026 09:27:27 PM INFO lbbd_cp_v0_solver - print: >>>Parallel subproblem time: 0.016s for 3 factories
04/23/2026 09:27:27 PM INFO lbbd_cp_v0_solver - print:  Added optimal optimality cut: factory=1, orders=[1, 3, 6, 12], cost=43.27, theta_est=0.00
04/23/2026 09:27:27 PM INFO lbbd_cp_v0_solver - print:  Added optimal optimality cut: factory=3, orders=[2, 7, 9, 11], cost=671.06, theta_est=0.00
04/23/2026 09:27:27 PM INFO lbbd_cp_v0_solver - print: >>>Parallel subproblem time: 0.015s for 3 factories
04/23/2026 09:27:27 PM INFO lbbd_cp_v0_solver - print:  Added optimal optimality cut: factory=1, orders=[3, 6, 8, 12], cost=571.00, theta_est=0.00
04/23/2026 09:27:27 PM INFO lbbd_cp_v0_solver - print:  Added optimal optimality cut: factory=3, orders=[2, 4, 9, 13], cost=1109.44, theta_est=0.00
04/23/2026 09:27:27 PM INFO lbbd_cp_v0_solver - print: >>>Parallel subproblem time: 0.015s for 3 factories
04/23/2026 09:27:27 PM INFO lbbd_cp_v0_solver - print:  Added feasibility cut: factory=3, conflict orders=[2, 4, 5, 14]
04/23/2026 09:27:27 PM INFO lbbd_cp_v0_solver - print: >>>Parallel subproblem time: 0.014s for 3 factories
04/23/2026 09:27:27 PM INFO lbbd_cp_v0_solver - print:  Added feasibility cut: factory=1, conflict orders=[1, 3, 10, 13, 14]
04/23/2026 09:27:27 PM INFO lbbd_cp_v0_solver - print: >>>Parallel subproblem time: 0.016s for 3 factories
04/23/2026 09:27:27 PM INFO lbbd_cp_v0_solver - print:  Added optimal optimality cut: factory=1, orders=[1, 3, 10, 13], cost=437.05, theta_est=0.00
04/23/2026 09:27:27 PM INFO lbbd_cp_v0_solver - print: >>>Parallel subproblem time: 0.015s for 3 factories
04/23/2026 09:27:27 PM INFO lbbd_cp_v0_solver - print:  Added optimal optimality cut: factory=2, orders=[7, 14, 15], cost=239.74, theta_est=197.96
04/23/2026 09:27:27 PM INFO lbbd_cp_v0_solver - print:  Added feasibility cut: factory=3, conflict orders=[2, 5, 9, 13]
04/23/2026 09:27:27 PM INFO lbbd_cp_v0_solver - print: >>>Parallel subproblem time: 0.016s for 3 factories
04/23/2026 09:27:27 PM INFO lbbd_cp_v0_solver - print:  Added optimal optimality cut: factory=3, orders=[2, 7, 12, 13], cost=530.89, theta_est=38.74
04/23/2026 09:27:27 PM INFO lbbd_cp_v0_solver - print: >>>Parallel subproblem time: 0.015s for 3 factories
04/23/2026 09:27:27 PM INFO lbbd_cp_v0_solver - print:  Added optimal optimality cut: factory=1, orders=[3, 6, 10, 13], cost=892.04, theta_est=0.00
04/23/2026 09:27:27 PM INFO lbbd_cp_v0_solver - print: >>>Parallel subproblem time: 0.016s for 3 factories
04/23/2026 09:27:27 PM INFO lbbd_cp_v0_solver - print:  Added optimal optimality cut: factory=2, orders=[10, 13, 14, 15], cost=563.39, theta_est=21.12
04/23/2026 09:27:27 PM INFO lbbd_cp_v0_solver - print:  Added optimal optimality cut: factory=3, orders=[2, 4, 7, 9], cost=447.00, theta_est=0.00
04/23/2026 09:27:27 PM INFO lbbd_cp_v0_solver - print: >>>Parallel subproblem time: 0.014s for 3 factories
04/23/2026 09:27:27 PM INFO lbbd_cp_v0_solver - print:  Added feasibility cut: factory=1, conflict orders=[1, 3, 6, 13, 14]
04/23/2026 09:27:27 PM INFO lbbd_cp_v0_solver - print: >>>Parallel subproblem time: 0.016s for 3 factories
04/23/2026 09:27:27 PM INFO lbbd_cp_v0_solver - print:  Added optimal optimality cut: factory=3, orders=[4, 7, 11, 13], cost=969.30, theta_est=0.00
04/23/2026 09:27:27 PM INFO lbbd_cp_v0_solver - print: >>>Parallel subproblem time: 0.014s for 3 factories
04/23/2026 09:27:27 PM INFO lbbd_cp_v0_solver - print:  Added feasibility cut: factory=3, conflict orders=[4, 5, 7, 13]
04/23/2026 09:27:27 PM INFO lbbd_cp_v0_solver - print: >>>Parallel subproblem time: 0.013s for 3 factories
04/23/2026 09:27:27 PM INFO lbbd_cp_v0_solver - print:  Added optimal optimality cut: factory=1, orders=[3, 8, 10, 13], cost=1032.64, theta_est=0.00
04/23/2026 09:27:27 PM INFO lbbd_cp_v0_solver - print:  Added optimal optimality cut: factory=3, orders=[2, 5, 7, 12], cost=423.40, theta_est=225.46
04/23/2026 09:27:27 PM INFO lbbd_cp_v0_solver - print: >>>Parallel subproblem time: 0.015s for 3 factories
04/23/2026 09:27:27 PM INFO lbbd_cp_v0_solver - print:  Added feasibility cut: factory=3, conflict orders=[2, 7, 9, 13]
04/23/2026 09:27:27 PM INFO lbbd_cp_v0_solver - print: >>>Parallel subproblem time: 0.015s for 3 factories
04/23/2026 09:27:27 PM INFO lbbd_cp_v0_solver - print:  Added optimal optimality cut: factory=3, orders=[2, 5, 9, 11], cost=1034.86, theta_est=0.00
04/23/2026 09:27:27 PM INFO lbbd_cp_v0_solver - print: >>>Parallel subproblem time: 0.015s for 3 factories
04/23/2026 09:27:27 PM INFO lbbd_cp_v0_solver - print: ***[Validated]*** obj=5948.78, delay=82.00, bound=6384.98, gap=7.33%, t=1.1s
04/23/2026 09:27:27 PM INFO lbbd_cp_v0_solver - _callback: [Gurobi] *  456   178              12    5948.7754691 6384.98252  7.33%   5.0    1s
04/23/2026 09:27:27 PM INFO lbbd_cp_v0_solver - _callback: [Gurobi] Cutting planes:
04/23/2026 09:27:27 PM INFO lbbd_cp_v0_solver - _callback: [Gurobi] Gomory: 1
04/23/2026 09:27:27 PM INFO lbbd_cp_v0_solver - _callback: [Gurobi] MIR: 37
04/23/2026 09:27:27 PM INFO lbbd_cp_v0_solver - _callback: [Gurobi] Lazy constraints: 114
04/23/2026 09:27:27 PM INFO lbbd_cp_v0_solver - _callback: [Gurobi] Explored 770 nodes (3487 simplex iterations) in 1.09 seconds (0.02 work units)
04/23/2026 09:27:27 PM INFO lbbd_cp_v0_solver - _callback: [Gurobi] Thread count was 20 (of 20 available processors)
04/23/2026 09:27:27 PM INFO lbbd_cp_v0_solver - _callback: [Gurobi] Solution count 9: 5948.78 5667.53 5386.94 ... -0
04/23/2026 09:27:27 PM INFO lbbd_cp_v0_solver - _callback: [Gurobi] Optimal solution found (tolerance 1.00e-04)
04/23/2026 09:27:27 PM INFO lbbd_cp_v0_solver - _callback: [Gurobi] Best objective 5.948775469150e+03, best bound 5.948775469150e+03, gap 0.0000%
04/23/2026 09:27:27 PM INFO lbbd_cp_v0_solver - _callback: [Gurobi] User-callback calls 1975, time in user-callback 1.01 sec
04/23/2026 09:27:27 PM INFO lbbd_cp_v0_solver - print: 
04/23/2026 09:27:27 PM INFO lbbd_cp_v0_solver - print: ============================================================
04/23/2026 09:27:27 PM INFO lbbd_cp_v0_solver - print: Branch-and-Check LBBD Summary
04/23/2026 09:27:27 PM INFO lbbd_cp_v0_solver - print: ============================================================
04/23/2026 09:27:27 PM INFO lbbd_cp_v0_solver - print: Status: OPTIMAL
04/23/2026 09:27:27 PM INFO lbbd_cp_v0_solver - print: Runtime: 1.09s
04/23/2026 09:27:27 PM INFO lbbd_cp_v0_solver - print: Iterations: 69
04/23/2026 09:27:27 PM INFO lbbd_cp_v0_solver - print: Initial UB: 14906.63
04/23/2026 09:27:27 PM INFO lbbd_cp_v0_solver - print: Module times (s): preprocess=0.000, enhancement=0.005, modeling=0.001, solving=1.087
04/23/2026 09:27:27 PM INFO lbbd_cp_v0_solver - print: Master time: 0.099s
04/23/2026 09:27:27 PM INFO lbbd_cp_v0_solver - print: Average subproblem time: 0.0113s
04/23/2026 09:27:27 PM INFO lbbd_cp_v0_solver - print: Lazy cuts added: 114
04/23/2026 09:27:27 PM INFO lbbd_cp_v0_solver - print:   - feasibility cuts: 40
04/23/2026 09:27:27 PM INFO lbbd_cp_v0_solver - print:   - optimality cuts: 74
04/23/2026 09:27:27 PM INFO lbbd_cp_v0_solver - print: Subproblems solved: 204
04/23/2026 09:27:27 PM INFO lbbd_cp_v0_solver - print: Subproblem time total: 2.31s
04/23/2026 09:27:27 PM INFO lbbd_cp_v0_solver - print: Subproblem time avg: 0.0113s
04/23/2026 09:27:27 PM INFO lbbd_cp_v0_solver - print: Best objective: 5948.78
04/23/2026 09:27:27 PM INFO lbbd_cp_v0_solver - print: Best bound: 5948.78
04/23/2026 09:27:27 PM INFO lbbd_cp_v0_solver - print: Final MIP gap: 0.00%
04/23/2026 09:27:27 PM INFO lbbd_cp_v0_solver - print: ============================================================
04/23/2026 09:27:27 PM INFO lbbd_cp_v0_solver - print: 
04/23/2026 09:27:27 PM INFO lbbd_cp_v0_solver - print: ------------------------------------------------------------
04/23/2026 09:27:27 PM INFO lbbd_cp_v0_solver - print: Subproblem Diagnostics
04/23/2026 09:27:27 PM INFO lbbd_cp_v0_solver - print: ------------------------------------------------------------
04/23/2026 09:27:27 PM INFO lbbd_cp_v0_solver - print: Total subproblems: 204
04/23/2026 09:27:27 PM INFO lbbd_cp_v0_solver - print:   infeasible: 40 (19.61%)
04/23/2026 09:27:27 PM INFO lbbd_cp_v0_solver - print:   optimal: 164 (80.39%)
04/23/2026 09:27:27 PM INFO lbbd_cp_v0_solver - print: Avg subproblem gap: 0.00% (n=128)
04/23/2026 09:27:27 PM INFO lbbd_cp_v0_solver - print: Avg subproblem objective: 542.788 (n=164)
04/23/2026 09:27:27 PM INFO lbbd_cp_v0_solver - print: Avg subproblem bound: 542.788 (n=164)
04/23/2026 09:27:27 PM INFO lbbd_cp_v0_solver - print: Avg (obj - bound) / |obj|: 0.00%
04/23/2026 09:27:27 PM INFO lbbd_cp_v0_solver - print: ------------------------------------------------------------
